NAME: tsp50_23
COMMENT: 50-tsp problem (Padberg/Rinaldi)
TYPE: TSP
DIMENSION: 50
EDGE_WEIGHT_TYPE : EUC_2D
NODE_COORD_SECTION
1 11 22
2 32 25
3 16 14
4 4 5
5 17 2
6 19 14
7 14 37
8 18 5
9 39 5
10 4 25
11 19 32
12 31 12
13 34 6
14 31 16
15 36 13
16 7 2
17 15 3
18 10 11
19 9 33
20 17 16
21 36 16
22 21 5
23 9 35
24 14 27
25 13 1
26 31 3
27 32 14
28 30 8
29 20 15
30 2 29
31 5 17
32 7 10
33 5 9
34 13 12
35 35 10
36 21 33
37 7 5
38 6 6
39 6 25
40 36 4
41 23 0
42 7 24
43 33 15
44 22 6
45 26 33
46 12 22
47 10 2
48 4 20
49 12 24
50 35 33
